
(set-logic HORN)
(declare-datatypes ((Tok_3 0)) (((C_89) (D_9) (X_127877) (Y_3278) (Pl_2))))
(declare-fun diseqTok_3 (Tok_3 Tok_3) Bool)
(declare-fun isC_48 (Tok_3) Bool)
(declare-fun isD_5 (Tok_3) Bool)
(declare-fun isX_113 (Tok_3) Bool)
(declare-fun isY_17 (Tok_3) Bool)
(declare-fun isPl_2 (Tok_3) Bool)
(assert (isC_48 C_89))
(assert (isD_5 D_9))
(assert (isX_113 X_127877))
(assert (isY_17 Y_3278))
(assert (isPl_2 Pl_2))
(assert (diseqTok_3 C_89 D_9))
(assert (diseqTok_3 C_89 X_127877))
(assert (diseqTok_3 C_89 Y_3278))
(assert (diseqTok_3 C_89 Pl_2))
(assert (diseqTok_3 D_9 C_89))
(assert (diseqTok_3 X_127877 C_89))
(assert (diseqTok_3 Y_3278 C_89))
(assert (diseqTok_3 Pl_2 C_89))
(assert (diseqTok_3 D_9 X_127877))
(assert (diseqTok_3 D_9 Y_3278))
(assert (diseqTok_3 D_9 Pl_2))
(assert (diseqTok_3 X_127877 D_9))
(assert (diseqTok_3 Y_3278 D_9))
(assert (diseqTok_3 Pl_2 D_9))
(assert (diseqTok_3 X_127877 Y_3278))
(assert (diseqTok_3 X_127877 Pl_2))
(assert (diseqTok_3 Y_3278 X_127877))
(assert (diseqTok_3 Pl_2 X_127877))
(assert (diseqTok_3 Y_3278 Pl_2))
(assert (diseqTok_3 Pl_2 Y_3278))
(declare-datatypes ((list_419 0)) (((nil_481) (cons_413 (head_826 Tok_3) (tail_832 list_419)))))
(declare-fun diseqlist_413 (list_419 list_419) Bool)
(declare-fun head_827 (Tok_3 list_419) Bool)
(declare-fun tail_833 (list_419 list_419) Bool)
(declare-fun isnil_481 (list_419) Bool)
(declare-fun iscons_413 (list_419) Bool)
(assert (forall ((x_127901 Tok_3) (x_127902 list_419))
	(head_827 x_127901 (cons_413 x_127901 x_127902))))
(assert (forall ((x_127901 Tok_3) (x_127902 list_419))
	(tail_833 x_127902 (cons_413 x_127901 x_127902))))
(assert (isnil_481 nil_481))
(assert (forall ((x_127904 Tok_3) (x_127905 list_419))
	(iscons_413 (cons_413 x_127904 x_127905))))
(assert (forall ((x_127906 Tok_3) (x_127907 list_419))
	(diseqlist_413 nil_481 (cons_413 x_127906 x_127907))))
(assert (forall ((x_127908 Tok_3) (x_127909 list_419))
	(diseqlist_413 (cons_413 x_127908 x_127909) nil_481)))
(assert (forall ((x_127910 Tok_3) (x_127911 list_419) (x_127912 Tok_3) (x_127913 list_419))
	(=> (diseqTok_3 x_127910 x_127912) (diseqlist_413 (cons_413 x_127910 x_127911) (cons_413 x_127912 x_127913)))))
(assert (forall ((x_127910 Tok_3) (x_127911 list_419) (x_127912 Tok_3) (x_127913 list_419))
	(=> (diseqlist_413 x_127911 x_127913) (diseqlist_413 (cons_413 x_127910 x_127911) (cons_413 x_127912 x_127913)))))
(declare-datatypes ((E_70 0)) (((Plus_140 (projPlus_64 E_70) (projPlus_65 E_70)) (EX_2) (EY_2))))
(declare-fun diseqE_10 (E_70 E_70) Bool)
(declare-fun projPlus_66 (E_70 E_70) Bool)
(declare-fun projPlus_67 (E_70 E_70) Bool)
(declare-fun isPlus_17 (E_70) Bool)
(declare-fun isEX_2 (E_70) Bool)
(declare-fun isEY_2 (E_70) Bool)
(assert (forall ((x_127914 E_70) (x_127915 E_70))
	(projPlus_66 x_127914 (Plus_140 x_127914 x_127915))))
(assert (forall ((x_127914 E_70) (x_127915 E_70))
	(projPlus_67 x_127915 (Plus_140 x_127914 x_127915))))
(assert (forall ((x_127919 E_70) (x_127920 E_70))
	(isPlus_17 (Plus_140 x_127919 x_127920))))
(assert (isEX_2 EX_2))
(assert (isEY_2 EY_2))
(assert (forall ((x_127921 E_70) (x_127922 E_70))
	(diseqE_10 (Plus_140 x_127921 x_127922) EX_2)))
(assert (forall ((x_127923 E_70) (x_127924 E_70))
	(diseqE_10 (Plus_140 x_127923 x_127924) EY_2)))
(assert (forall ((x_127925 E_70) (x_127926 E_70))
	(diseqE_10 EX_2 (Plus_140 x_127925 x_127926))))
(assert (forall ((x_127927 E_70) (x_127928 E_70))
	(diseqE_10 EY_2 (Plus_140 x_127927 x_127928))))
(assert (diseqE_10 EX_2 EY_2))
(assert (diseqE_10 EY_2 EX_2))
(assert (forall ((x_127929 E_70) (x_127930 E_70) (x_127931 E_70) (x_127932 E_70))
	(=> (diseqE_10 x_127929 x_127931) (diseqE_10 (Plus_140 x_127929 x_127930) (Plus_140 x_127931 x_127932)))))
(assert (forall ((x_127929 E_70) (x_127930 E_70) (x_127931 E_70) (x_127932 E_70))
	(=> (diseqE_10 x_127930 x_127932) (diseqE_10 (Plus_140 x_127929 x_127930) (Plus_140 x_127931 x_127932)))))
(declare-fun x_127878 (list_419 list_419 list_419) Bool)
(assert (forall ((x_127882 list_419) (z_2809 Tok_3) (xs_917 list_419) (y_3279 list_419))
	(=> (x_127878 x_127882 xs_917 y_3279) (x_127878 (cons_413 z_2809 x_127882) (cons_413 z_2809 xs_917) y_3279))))
(assert (forall ((x_127883 list_419))
	(x_127878 x_127883 nil_481 x_127883)))
(declare-fun lin_3 (list_419 E_70) Bool)
(assert (lin_3 (cons_413 Y_3278 nil_481) EY_2))
(assert (lin_3 (cons_413 X_127877 nil_481) EX_2))
(assert (forall ((x_127886 list_419) (x_127887 list_419) (x_127888 list_419) (x_127889 list_419) (x_127890 list_419) (a_133 E_70) (b_150 E_70))
	(=> (and (lin_3 x_127887 a_133) (lin_3 x_127888 b_150) (x_127878 x_127889 (cons_413 D_9 (cons_413 Pl_2 nil_481)) x_127888) (x_127878 x_127890 x_127887 x_127889) (x_127878 x_127886 (cons_413 C_89 nil_481) x_127890)) (lin_3 x_127886 (Plus_140 a_133 b_150)))))
(assert (forall ((x_127892 list_419) (u_37 E_70) (v_38 E_70))
	(=> (and true (diseqE_10 u_37 v_38) (lin_3 x_127892 u_37) (lin_3 x_127892 v_38)) false)))
(check-sat)
